p cnf 465 1712
c p weight -33 1 0
c p weight 33 -1 0
c p weight 37 6.12323399573676603586882014729198302312846062338790031898128063403419218957424163818359375E-17 0
c p weight -37 1 0
c p weight 38 1 0
c p weight -38 1 0
c p weight -35 1 0
c p weight 35 -1 0
c p weight -39 1 0
c p weight 39 -1 0
c p weight -41 1 0
c p weight 41 -1 0
c p weight 45 6.12323399573676603586882014729198302312846062338790031898128063403419218957424163818359375E-17 0
c p weight -45 1 0
c p weight 46 1 0
c p weight -46 1 0
c p weight -43 1 0
c p weight 43 -1 0
c p weight -47 1 0
c p weight 47 -1 0
c p weight -49 1 0
c p weight 49 -1 0
c p weight 53 6.12323399573676603586882014729198302312846062338790031898128063403419218957424163818359375E-17 0
c p weight -53 1 0
c p weight 54 1 0
c p weight -54 1 0
c p weight -51 1 0
c p weight 51 -1 0
c p weight -55 1 0
c p weight 55 -1 0
c p weight -57 1 0
c p weight 57 -1 0
c p weight -60 1 0
c p weight 60 -1 0
c p weight 64 6.12323399573676603586882014729198302312846062338790031898128063403419218957424163818359375E-17 0
c p weight -64 1 0
c p weight 65 1 0
c p weight -65 1 0
c p weight -62 1 0
c p weight 62 -1 0
c p weight -66 1 0
c p weight 66 -1 0
c p weight -68 1 0
c p weight 68 -1 0
c p weight 72 6.12323399573676603586882014729198302312846062338790031898128063403419218957424163818359375E-17 0
c p weight -72 1 0
c p weight 73 1 0
c p weight -73 1 0
c p weight -70 1 0
c p weight 70 -1 0
c p weight -74 1 0
c p weight 74 -1 0
c p weight -76 1 0
c p weight 76 -1 0
c p weight 80 6.12323399573676603586882014729198302312846062338790031898128063403419218957424163818359375E-17 0
c p weight -80 1 0
c p weight 81 1 0
c p weight -81 1 0
c p weight -78 1 0
c p weight 78 -1 0
c p weight -82 1 0
c p weight 82 -1 0
c p weight -84 1 0
c p weight 84 -1 0
c p weight -87 1 0
c p weight 87 -1 0
c p weight 91 6.12323399573676603586882014729198302312846062338790031898128063403419218957424163818359375E-17 0
c p weight -91 1 0
c p weight 92 1 0
c p weight -92 1 0
c p weight -89 1 0
c p weight 89 -1 0
c p weight -93 1 0
c p weight 93 -1 0
c p weight -95 1 0
c p weight 95 -1 0
c p weight 99 6.12323399573676603586882014729198302312846062338790031898128063403419218957424163818359375E-17 0
c p weight -99 1 0
c p weight 100 1 0
c p weight -100 1 0
c p weight -97 1 0
c p weight 97 -1 0
c p weight -101 1 0
c p weight 101 -1 0
c p weight -103 1 0
c p weight 103 -1 0
c p weight 107 6.12323399573676603586882014729198302312846062338790031898128063403419218957424163818359375E-17 0
c p weight -107 1 0
c p weight 108 1 0
c p weight -108 1 0
c p weight -105 1 0
c p weight 105 -1 0
c p weight -109 1 0
c p weight 109 -1 0
c p weight -111 1 0
c p weight 111 -1 0
c p weight 115 6.12323399573676603586882014729198302312846062338790031898128063403419218957424163818359375E-17 0
c p weight -115 1 0
c p weight 116 1 0
c p weight -116 1 0
c p weight -113 1 0
c p weight 113 -1 0
c p weight -117 1 0
c p weight 117 -1 0
c p weight -119 1 0
c p weight 119 -1 0
c p weight -122 1 0
c p weight 122 -1 0
c p weight 126 6.12323399573676603586882014729198302312846062338790031898128063403419218957424163818359375E-17 0
c p weight -126 1 0
c p weight 127 1 0
c p weight -127 1 0
c p weight -124 1 0
c p weight 124 -1 0
c p weight -128 1 0
c p weight 128 -1 0
c p weight -130 1 0
c p weight 130 -1 0
c p weight 134 6.12323399573676603586882014729198302312846062338790031898128063403419218957424163818359375E-17 0
c p weight -134 1 0
c p weight 135 1 0
c p weight -135 1 0
c p weight -132 1 0
c p weight 132 -1 0
c p weight -136 1 0
c p weight 136 -1 0
c p weight -138 1 0
c p weight 138 -1 0
c p weight 142 6.12323399573676603586882014729198302312846062338790031898128063403419218957424163818359375E-17 0
c p weight -142 1 0
c p weight 143 1 0
c p weight -143 1 0
c p weight -140 1 0
c p weight 140 -1 0
c p weight -144 1 0
c p weight 144 -1 0
c p weight -146 1 0
c p weight 146 -1 0
c p weight 150 6.12323399573676603586882014729198302312846062338790031898128063403419218957424163818359375E-17 0
c p weight -150 1 0
c p weight 151 1 0
c p weight -151 1 0
c p weight -148 1 0
c p weight 148 -1 0
c p weight -152 1 0
c p weight 152 -1 0
c p weight -154 1 0
c p weight 154 -1 0
c p weight -157 1 0
c p weight 157 -1 0
c p weight 161 6.12323399573676603586882014729198302312846062338790031898128063403419218957424163818359375E-17 0
c p weight -161 1 0
c p weight 162 1 0
c p weight -162 1 0
c p weight -159 1 0
c p weight 159 -1 0
c p weight -163 1 0
c p weight 163 -1 0
c p weight -165 1 0
c p weight 165 -1 0
c p weight 169 6.12323399573676603586882014729198302312846062338790031898128063403419218957424163818359375E-17 0
c p weight -169 1 0
c p weight 170 1 0
c p weight -170 1 0
c p weight -167 1 0
c p weight 167 -1 0
c p weight -171 1 0
c p weight 171 -1 0
c p weight -173 1 0
c p weight 173 -1 0
c p weight -176 1 0
c p weight 176 -1 0
c p weight 180 6.12323399573676603586882014729198302312846062338790031898128063403419218957424163818359375E-17 0
c p weight -180 1 0
c p weight 181 1 0
c p weight -181 1 0
c p weight -178 1 0
c p weight 178 -1 0
c p weight -182 1 0
c p weight 182 -1 0
c p weight -184 1 0
c p weight 184 -1 0
c p weight 188 6.12323399573676603586882014729198302312846062338790031898128063403419218957424163818359375E-17 0
c p weight -188 1 0
c p weight 189 1 0
c p weight -189 1 0
c p weight -186 1 0
c p weight 186 -1 0
c p weight -190 1 0
c p weight 190 -1 0
c p weight -192 1 0
c p weight 192 -1 0
c p weight 196 6.12323399573676603586882014729198302312846062338790031898128063403419218957424163818359375E-17 0
c p weight -196 1 0
c p weight 197 1 0
c p weight -197 1 0
c p weight -194 1 0
c p weight 194 -1 0
c p weight -198 1 0
c p weight 198 -1 0
c p weight -200 1 0
c p weight 200 -1 0
c p weight -203 1 0
c p weight 203 -1 0
c p weight 207 6.12323399573676603586882014729198302312846062338790031898128063403419218957424163818359375E-17 0
c p weight -207 1 0
c p weight 208 1 0
c p weight -208 1 0
c p weight -205 1 0
c p weight 205 -1 0
c p weight -209 1 0
c p weight 209 -1 0
c p weight -211 1 0
c p weight 211 -1 0
c p weight 215 6.12323399573676603586882014729198302312846062338790031898128063403419218957424163818359375E-17 0
c p weight -215 1 0
c p weight 216 1 0
c p weight -216 1 0
c p weight -213 1 0
c p weight 213 -1 0
c p weight -217 1 0
c p weight 217 -1 0
c p weight -219 1 0
c p weight 219 -1 0
c p weight -222 1 0
c p weight 222 -1 0
c p weight 226 6.12323399573676603586882014729198302312846062338790031898128063403419218957424163818359375E-17 0
c p weight -226 1 0
c p weight 227 1 0
c p weight -227 1 0
c p weight -224 1 0
c p weight 224 -1 0
c p weight -228 1 0
c p weight 228 -1 0
c p weight -230 1 0
c p weight 230 -1 0
c p weight 234 6.12323399573676603586882014729198302312846062338790031898128063403419218957424163818359375E-17 0
c p weight -234 1 0
c p weight 235 1 0
c p weight -235 1 0
c p weight -232 1 0
c p weight 232 -1 0
c p weight -236 1 0
c p weight 236 -1 0
c p weight -238 1 0
c p weight 238 -1 0
c p weight 242 6.12323399573676603586882014729198302312846062338790031898128063403419218957424163818359375E-17 0
c p weight -242 1 0
c p weight 243 1 0
c p weight -243 1 0
c p weight -240 1 0
c p weight 240 -1 0
c p weight -244 1 0
c p weight 244 -1 0
c p weight -246 1 0
c p weight 246 -1 0
c p weight 250 6.12323399573676603586882014729198302312846062338790031898128063403419218957424163818359375E-17 0
c p weight -250 1 0
c p weight 251 1 0
c p weight -251 1 0
c p weight -248 1 0
c p weight 248 -1 0
c p weight -252 1 0
c p weight 252 -1 0
c p weight -254 1 0
c p weight 254 -1 0
c p weight -257 1 0
c p weight 257 -1 0
c p weight 261 6.12323399573676603586882014729198302312846062338790031898128063403419218957424163818359375E-17 0
c p weight -261 1 0
c p weight 262 1 0
c p weight -262 1 0
c p weight -259 1 0
c p weight 259 -1 0
c p weight -263 1 0
c p weight 263 -1 0
c p weight -265 1 0
c p weight 265 -1 0
c p weight 269 6.12323399573676603586882014729198302312846062338790031898128063403419218957424163818359375E-17 0
c p weight -269 1 0
c p weight 270 1 0
c p weight -270 1 0
c p weight -267 1 0
c p weight 267 -1 0
c p weight -271 1 0
c p weight 271 -1 0
c p weight -273 1 0
c p weight 273 -1 0
c p weight 277 6.12323399573676603586882014729198302312846062338790031898128063403419218957424163818359375E-17 0
c p weight -277 1 0
c p weight 278 1 0
c p weight -278 1 0
c p weight -275 1 0
c p weight 275 -1 0
c p weight -279 1 0
c p weight 279 -1 0
c p weight -281 1 0
c p weight 281 -1 0
c p weight -284 1 0
c p weight 284 -1 0
c p weight 288 6.12323399573676603586882014729198302312846062338790031898128063403419218957424163818359375E-17 0
c p weight -288 1 0
c p weight 289 1 0
c p weight -289 1 0
c p weight -286 1 0
c p weight 286 -1 0
c p weight -290 1 0
c p weight 290 -1 0
c p weight -292 1 0
c p weight 292 -1 0
c p weight 296 6.12323399573676603586882014729198302312846062338790031898128063403419218957424163818359375E-17 0
c p weight -296 1 0
c p weight 297 1 0
c p weight -297 1 0
c p weight -294 1 0
c p weight 294 -1 0
c p weight -298 1 0
c p weight 298 -1 0
c p weight -300 1 0
c p weight 300 -1 0
c p weight 304 6.12323399573676603586882014729198302312846062338790031898128063403419218957424163818359375E-17 0
c p weight -304 1 0
c p weight 305 1 0
c p weight -305 1 0
c p weight -302 1 0
c p weight 302 -1 0
c p weight -306 1 0
c p weight 306 -1 0
c p weight -308 1 0
c p weight 308 -1 0
c p weight -311 1 0
c p weight 311 -1 0
c p weight 315 6.12323399573676603586882014729198302312846062338790031898128063403419218957424163818359375E-17 0
c p weight -315 1 0
c p weight 316 1 0
c p weight -316 1 0
c p weight -313 1 0
c p weight 313 -1 0
c p weight -317 1 0
c p weight 317 -1 0
c p weight -319 1 0
c p weight 319 -1 0
c p weight 323 6.12323399573676603586882014729198302312846062338790031898128063403419218957424163818359375E-17 0
c p weight -323 1 0
c p weight 324 1 0
c p weight -324 1 0
c p weight -321 1 0
c p weight 321 -1 0
c p weight -325 1 0
c p weight 325 -1 0
c p weight -327 1 0
c p weight 327 -1 0
c p weight 331 6.12323399573676603586882014729198302312846062338790031898128063403419218957424163818359375E-17 0
c p weight -331 1 0
c p weight 332 1 0
c p weight -332 1 0
c p weight -329 1 0
c p weight 329 -1 0
c p weight -333 1 0
c p weight 333 -1 0
c p weight -335 1 0
c p weight 335 -1 0
c p weight -338 1 0
c p weight 338 -1 0
c p weight 342 6.12323399573676603586882014729198302312846062338790031898128063403419218957424163818359375E-17 0
c p weight -342 1 0
c p weight 343 1 0
c p weight -343 1 0
c p weight -340 1 0
c p weight 340 -1 0
c p weight -344 1 0
c p weight 344 -1 0
c p weight -346 1 0
c p weight 346 -1 0
c p weight 350 6.12323399573676603586882014729198302312846062338790031898128063403419218957424163818359375E-17 0
c p weight -350 1 0
c p weight 351 1 0
c p weight -351 1 0
c p weight -348 1 0
c p weight 348 -1 0
c p weight -352 1 0
c p weight 352 -1 0
c p weight -354 1 0
c p weight 354 -1 0
c p weight -357 1 0
c p weight 357 -1 0
c p weight 361 6.12323399573676603586882014729198302312846062338790031898128063403419218957424163818359375E-17 0
c p weight -361 1 0
c p weight 362 1 0
c p weight -362 1 0
c p weight -359 1 0
c p weight 359 -1 0
c p weight -363 1 0
c p weight 363 -1 0
c p weight -365 1 0
c p weight 365 -1 0
c p weight 369 6.12323399573676603586882014729198302312846062338790031898128063403419218957424163818359375E-17 0
c p weight -369 1 0
c p weight 370 1 0
c p weight -370 1 0
c p weight -367 1 0
c p weight 367 -1 0
c p weight -371 1 0
c p weight 371 -1 0
c p weight -373 1 0
c p weight 373 -1 0
c p weight 377 6.12323399573676603586882014729198302312846062338790031898128063403419218957424163818359375E-17 0
c p weight -377 1 0
c p weight 378 1 0
c p weight -378 1 0
c p weight -375 1 0
c p weight 375 -1 0
c p weight -379 1 0
c p weight 379 -1 0
c p weight -381 1 0
c p weight 381 -1 0
c p weight -384 1 0
c p weight 384 -1 0
c p weight 388 6.12323399573676603586882014729198302312846062338790031898128063403419218957424163818359375E-17 0
c p weight -388 1 0
c p weight 389 1 0
c p weight -389 1 0
c p weight -386 1 0
c p weight 386 -1 0
c p weight -390 1 0
c p weight 390 -1 0
c p weight -392 1 0
c p weight 392 -1 0
c p weight 396 6.12323399573676603586882014729198302312846062338790031898128063403419218957424163818359375E-17 0
c p weight -396 1 0
c p weight 397 1 0
c p weight -397 1 0
c p weight -394 1 0
c p weight 394 -1 0
c p weight -398 1 0
c p weight 398 -1 0
c p weight -400 1 0
c p weight 400 -1 0
c p weight 404 6.12323399573676603586882014729198302312846062338790031898128063403419218957424163818359375E-17 0
c p weight -404 1 0
c p weight 405 1 0
c p weight -405 1 0
c p weight -402 1 0
c p weight 402 -1 0
c p weight -406 1 0
c p weight 406 -1 0
c p weight -408 1 0
c p weight 408 -1 0
c p weight -411 1 0
c p weight 411 -1 0
c p weight 415 6.12323399573676603586882014729198302312846062338790031898128063403419218957424163818359375E-17 0
c p weight -415 1 0
c p weight 416 1 0
c p weight -416 1 0
c p weight -413 1 0
c p weight 413 -1 0
c p weight -417 1 0
c p weight 417 -1 0
c p weight -419 1 0
c p weight 419 -1 0
c p weight 423 6.12323399573676603586882014729198302312846062338790031898128063403419218957424163818359375E-17 0
c p weight -423 1 0
c p weight 424 1 0
c p weight -424 1 0
c p weight -421 1 0
c p weight 421 -1 0
c p weight -425 1 0
c p weight 425 -1 0
c p weight -427 1 0
c p weight 427 -1 0
c p weight 431 6.12323399573676603586882014729198302312846062338790031898128063403419218957424163818359375E-17 0
c p weight -431 1 0
c p weight 432 1 0
c p weight -432 1 0
c p weight -429 1 0
c p weight 429 -1 0
c p weight -433 1 0
c p weight 433 -1 0
c p weight -435 1 0
c p weight 435 -1 0
c p weight -438 1 0
c p weight 438 -1 0
c p weight 442 6.12323399573676603586882014729198302312846062338790031898128063403419218957424163818359375E-17 0
c p weight -442 1 0
c p weight 443 1 0
c p weight -443 1 0
c p weight -440 1 0
c p weight 440 -1 0
c p weight -444 1 0
c p weight 444 -1 0
c p weight -446 1 0
c p weight 446 -1 0
c p weight 450 6.12323399573676603586882014729198302312846062338790031898128063403419218957424163818359375E-17 0
c p weight -450 1 0
c p weight 451 1 0
c p weight -451 1 0
c p weight -448 1 0
c p weight 448 -1 0
c p weight -452 1 0
c p weight 452 -1 0
c p weight -454 1 0
c p weight 454 -1 0
c p weight -457 1 0
c p weight 457 -1 0
c p weight 461 6.12323399573676603586882014729198302312846062338790031898128063403419218957424163818359375E-17 0
c p weight -461 1 0
c p weight 462 1 0
c p weight -462 1 0
c p weight -459 1 0
c p weight 459 -1 0
c p weight -463 1 0
c p weight 463 -1 0
c p weight 465 0.5 0
c p weight -465 1 0
465 0
-31 0
-29 0
-27 0
-25 0
-23 0
-21 0
-19 0
-17 0
-15 0
-13 0
-11 0
-9 0
-7 0
-5 0
-3 0
-1 0
-33 1 0
-33 2 0
33 -1 -2 0
34 1 -2 0
34 -1 2 0
-34 1 2 0
-34 -1 -2 0
-35 36 0
-35 34 0
-35 -1 0
35 -36 1 -34 0
36 -1 34 0
-36 1 34 0
-37 34 0
36 -37 -1 0
-36 -37 1 0
36 37 1 -34 0
-36 37 -1 -34 0
-38 34 0
36 -38 1 0
-36 -38 -1 0
36 38 -1 -34 0
-36 38 1 -34 0
-39 36 0
-39 34 0
39 -36 -34 0
40 36 -34 0
40 -36 34 0
-40 36 34 0
-40 -36 -34 0
-41 3 0
-41 4 0
41 -3 -4 0
42 3 -4 0
42 -3 4 0
-42 3 4 0
-42 -3 -4 0
-43 44 0
-43 42 0
-43 -3 0
43 -44 3 -42 0
44 -3 42 0
-44 3 42 0
-45 42 0
44 -45 -3 0
-44 -45 3 0
44 45 3 -42 0
-44 45 -3 -42 0
-46 42 0
44 -46 3 0
-44 -46 -3 0
44 46 -3 -42 0
-44 46 3 -42 0
-47 44 0
-47 42 0
47 -44 -42 0
48 44 -42 0
48 -44 42 0
-48 44 42 0
-48 -44 -42 0
-49 44 0
-49 48 0
49 -44 -48 0
50 44 -48 0
50 -44 48 0
-50 44 48 0
-50 -44 -48 0
-51 52 0
-51 50 0
-51 -44 0
51 -52 44 -50 0
52 -44 50 0
-52 44 50 0
-53 50 0
52 -53 -44 0
-52 -53 44 0
52 53 44 -50 0
-52 53 -44 -50 0
-54 50 0
52 -54 44 0
-52 -54 -44 0
52 54 -44 -50 0
-52 54 44 -50 0
-55 52 0
-55 50 0
55 -52 -50 0
56 52 -50 0
56 -52 50 0
-56 52 50 0
-56 -52 -50 0
-57 36 0
-57 56 0
-57 52 -40 0
-57 -52 40 0
57 -36 52 40 -56 0
57 -36 -52 -40 -56 0
59 36 -52 0
59 -36 52 0
-59 36 52 0
-59 -36 -52 0
58 40 -56 0
58 -40 56 0
-58 40 56 0
-58 -40 -56 0
-60 59 0
-60 56 0
60 -59 -56 0
61 59 -56 0
61 -59 56 0
-61 59 56 0
-61 -59 -56 0
-62 63 0
-62 61 0
-62 -59 0
62 -63 59 -61 0
63 -59 61 0
-63 59 61 0
-64 61 0
63 -64 -59 0
-63 -64 59 0
63 64 59 -61 0
-63 64 -59 -61 0
-65 61 0
63 -65 59 0
-63 -65 -59 0
63 65 -59 -61 0
-63 65 59 -61 0
-66 63 0
-66 61 0
66 -63 -61 0
67 63 -61 0
67 -63 61 0
-67 63 61 0
-67 -63 -61 0
-68 5 0
-68 6 0
68 -5 -6 0
69 5 -6 0
69 -5 6 0
-69 5 6 0
-69 -5 -6 0
-70 71 0
-70 69 0
-70 -5 0
70 -71 5 -69 0
71 -5 69 0
-71 5 69 0
-72 69 0
71 -72 -5 0
-71 -72 5 0
71 72 5 -69 0
-71 72 -5 -69 0
-73 69 0
71 -73 5 0
-71 -73 -5 0
71 73 -5 -69 0
-71 73 5 -69 0
-74 71 0
-74 69 0
74 -71 -69 0
75 71 -69 0
75 -71 69 0
-75 71 69 0
-75 -71 -69 0
-76 71 0
-76 75 0
76 -71 -75 0
77 71 -75 0
77 -71 75 0
-77 71 75 0
-77 -71 -75 0
-78 79 0
-78 77 0
-78 -71 0
78 -79 71 -77 0
79 -71 77 0
-79 71 77 0
-80 77 0
79 -80 -71 0
-79 -80 71 0
79 80 71 -77 0
-79 80 -71 -77 0
-81 77 0
79 -81 71 0
-79 -81 -71 0
79 81 -71 -77 0
-79 81 71 -77 0
-82 79 0
-82 77 0
82 -79 -77 0
83 79 -77 0
83 -79 77 0
-83 79 77 0
-83 -79 -77 0
-84 36 0
-84 83 0
-84 79 -58 0
-84 -79 58 0
84 -36 79 58 -83 0
84 -36 -79 -58 -83 0
86 36 -79 0
86 -36 79 0
-86 36 79 0
-86 -36 -79 0
85 58 -83 0
85 -58 83 0
-85 58 83 0
-85 -58 -83 0
-87 86 0
-87 83 0
87 -86 -83 0
88 86 -83 0
88 -86 83 0
-88 86 83 0
-88 -86 -83 0
-89 90 0
-89 88 0
-89 -86 0
89 -90 86 -88 0
90 -86 88 0
-90 86 88 0
-91 88 0
90 -91 -86 0
-90 -91 86 0
90 91 86 -88 0
-90 91 -86 -88 0
-92 88 0
90 -92 86 0
-90 -92 -86 0
90 92 -86 -88 0
-90 92 86 -88 0
-93 90 0
-93 88 0
93 -90 -88 0
94 90 -88 0
94 -90 88 0
-94 90 88 0
-94 -90 -88 0
-95 7 0
-95 8 0
95 -7 -8 0
96 7 -8 0
96 -7 8 0
-96 7 8 0
-96 -7 -8 0
-97 98 0
-97 96 0
-97 -7 0
97 -98 7 -96 0
98 -7 96 0
-98 7 96 0
-99 96 0
98 -99 -7 0
-98 -99 7 0
98 99 7 -96 0
-98 99 -7 -96 0
-100 96 0
98 -100 7 0
-98 -100 -7 0
98 100 -7 -96 0
-98 100 7 -96 0
-101 98 0
-101 96 0
101 -98 -96 0
102 98 -96 0
102 -98 96 0
-102 98 96 0
-102 -98 -96 0
-103 9 0
-103 10 0
103 -9 -10 0
104 9 -10 0
104 -9 10 0
-104 9 10 0
-104 -9 -10 0
-105 106 0
-105 104 0
-105 -9 0
105 -106 9 -104 0
106 -9 104 0
-106 9 104 0
-107 104 0
106 -107 -9 0
-106 -107 9 0
106 107 9 -104 0
-106 107 -9 -104 0
-108 104 0
106 -108 9 0
-106 -108 -9 0
106 108 -9 -104 0
-106 108 9 -104 0
-109 106 0
-109 104 0
109 -106 -104 0
110 106 -104 0
110 -106 104 0
-110 106 104 0
-110 -106 -104 0
-111 106 0
-111 110 0
111 -106 -110 0
112 106 -110 0
112 -106 110 0
-112 106 110 0
-112 -106 -110 0
-113 114 0
-113 112 0
-113 -106 0
113 -114 106 -112 0
114 -106 112 0
-114 106 112 0
-115 112 0
114 -115 -106 0
-114 -115 106 0
114 115 106 -112 0
-114 115 -106 -112 0
-116 112 0
114 -116 106 0
-114 -116 -106 0
114 116 -106 -112 0
-114 116 106 -112 0
-117 114 0
-117 112 0
117 -114 -112 0
118 114 -112 0
118 -114 112 0
-118 114 112 0
-118 -114 -112 0
-119 98 0
-119 118 0
-119 114 -102 0
-119 -114 102 0
119 -98 114 102 -118 0
119 -98 -114 -102 -118 0
121 98 -114 0
121 -98 114 0
-121 98 114 0
-121 -98 -114 0
120 102 -118 0
120 -102 118 0
-120 102 118 0
-120 -102 -118 0
-122 121 0
-122 118 0
122 -121 -118 0
123 121 -118 0
123 -121 118 0
-123 121 118 0
-123 -121 -118 0
-124 125 0
-124 123 0
-124 -121 0
124 -125 121 -123 0
125 -121 123 0
-125 121 123 0
-126 123 0
125 -126 -121 0
-125 -126 121 0
125 126 121 -123 0
-125 126 -121 -123 0
-127 123 0
125 -127 121 0
-125 -127 -121 0
125 127 -121 -123 0
-125 127 121 -123 0
-128 125 0
-128 123 0
128 -125 -123 0
129 125 -123 0
129 -125 123 0
-129 125 123 0
-129 -125 -123 0
-130 11 0
-130 12 0
130 -11 -12 0
131 11 -12 0
131 -11 12 0
-131 11 12 0
-131 -11 -12 0
-132 133 0
-132 131 0
-132 -11 0
132 -133 11 -131 0
133 -11 131 0
-133 11 131 0
-134 131 0
133 -134 -11 0
-133 -134 11 0
133 134 11 -131 0
-133 134 -11 -131 0
-135 131 0
133 -135 11 0
-133 -135 -11 0
133 135 -11 -131 0
-133 135 11 -131 0
-136 133 0
-136 131 0
136 -133 -131 0
137 133 -131 0
137 -133 131 0
-137 133 131 0
-137 -133 -131 0
-138 13 0
-138 14 0
138 -13 -14 0
139 13 -14 0
139 -13 14 0
-139 13 14 0
-139 -13 -14 0
-140 141 0
-140 139 0
-140 -13 0
140 -141 13 -139 0
141 -13 139 0
-141 13 139 0
-142 139 0
141 -142 -13 0
-141 -142 13 0
141 142 13 -139 0
-141 142 -13 -139 0
-143 139 0
141 -143 13 0
-141 -143 -13 0
141 143 -13 -139 0
-141 143 13 -139 0
-144 141 0
-144 139 0
144 -141 -139 0
145 141 -139 0
145 -141 139 0
-145 141 139 0
-145 -141 -139 0
-146 141 0
-146 145 0
146 -141 -145 0
147 141 -145 0
147 -141 145 0
-147 141 145 0
-147 -141 -145 0
-148 149 0
-148 147 0
-148 -141 0
148 -149 141 -147 0
149 -141 147 0
-149 141 147 0
-150 147 0
149 -150 -141 0
-149 -150 141 0
149 150 141 -147 0
-149 150 -141 -147 0
-151 147 0
149 -151 141 0
-149 -151 -141 0
149 151 -141 -147 0
-149 151 141 -147 0
-152 149 0
-152 147 0
152 -149 -147 0
153 149 -147 0
153 -149 147 0
-153 149 147 0
-153 -149 -147 0
-154 90 0
-154 153 0
-154 149 -94 0
-154 -149 94 0
154 -90 149 94 -153 0
154 -90 -149 -94 -153 0
156 90 -149 0
156 -90 149 0
-156 90 149 0
-156 -90 -149 0
155 94 -153 0
155 -94 153 0
-155 94 153 0
-155 -94 -153 0
-157 156 0
-157 153 0
157 -156 -153 0
158 156 -153 0
158 -156 153 0
-158 156 153 0
-158 -156 -153 0
-159 160 0
-159 158 0
-159 -156 0
159 -160 156 -158 0
160 -156 158 0
-160 156 158 0
-161 158 0
160 -161 -156 0
-160 -161 156 0
160 161 156 -158 0
-160 161 -156 -158 0
-162 158 0
160 -162 156 0
-160 -162 -156 0
160 162 -156 -158 0
-160 162 156 -158 0
-163 160 0
-163 158 0
163 -160 -158 0
164 160 -158 0
164 -160 158 0
-164 160 158 0
-164 -160 -158 0
-165 160 0
-165 164 0
165 -160 -164 0
166 160 -164 0
166 -160 164 0
-166 160 164 0
-166 -160 -164 0
-167 168 0
-167 166 0
-167 -160 0
167 -168 160 -166 0
168 -160 166 0
-168 160 166 0
-169 166 0
168 -169 -160 0
-168 -169 160 0
168 169 160 -166 0
-168 169 -160 -166 0
-170 166 0
168 -170 160 0
-168 -170 -160 0
168 170 -160 -166 0
-168 170 160 -166 0
-171 168 0
-171 166 0
171 -168 -166 0
172 168 -166 0
172 -168 166 0
-172 168 166 0
-172 -168 -166 0
-173 133 0
-173 172 0
-173 168 -137 0
-173 -168 137 0
173 -133 168 137 -172 0
173 -133 -168 -137 -172 0
175 133 -168 0
175 -133 168 0
-175 133 168 0
-175 -133 -168 0
174 137 -172 0
174 -137 172 0
-174 137 172 0
-174 -137 -172 0
-176 175 0
-176 172 0
176 -175 -172 0
177 175 -172 0
177 -175 172 0
-177 175 172 0
-177 -175 -172 0
-178 179 0
-178 177 0
-178 -175 0
178 -179 175 -177 0
179 -175 177 0
-179 175 177 0
-180 177 0
179 -180 -175 0
-179 -180 175 0
179 180 175 -177 0
-179 180 -175 -177 0
-181 177 0
179 -181 175 0
-179 -181 -175 0
179 181 -175 -177 0
-179 181 175 -177 0
-182 179 0
-182 177 0
182 -179 -177 0
183 179 -177 0
183 -179 177 0
-183 179 177 0
-183 -179 -177 0
-184 15 0
-184 16 0
184 -15 -16 0
185 15 -16 0
185 -15 16 0
-185 15 16 0
-185 -15 -16 0
-186 187 0
-186 185 0
-186 -15 0
186 -187 15 -185 0
187 -15 185 0
-187 15 185 0
-188 185 0
187 -188 -15 0
-187 -188 15 0
187 188 15 -185 0
-187 188 -15 -185 0
-189 185 0
187 -189 15 0
-187 -189 -15 0
187 189 -15 -185 0
-187 189 15 -185 0
-190 187 0
-190 185 0
190 -187 -185 0
191 187 -185 0
191 -187 185 0
-191 187 185 0
-191 -187 -185 0
-192 187 0
-192 191 0
192 -187 -191 0
193 187 -191 0
193 -187 191 0
-193 187 191 0
-193 -187 -191 0
-194 195 0
-194 193 0
-194 -187 0
194 -195 187 -193 0
195 -187 193 0
-195 187 193 0
-196 193 0
195 -196 -187 0
-195 -196 187 0
195 196 187 -193 0
-195 196 -187 -193 0
-197 193 0
195 -197 187 0
-195 -197 -187 0
195 197 -187 -193 0
-195 197 187 -193 0
-198 195 0
-198 193 0
198 -195 -193 0
199 195 -193 0
199 -195 193 0
-199 195 193 0
-199 -195 -193 0
-200 63 0
-200 199 0
-200 195 -67 0
-200 -195 67 0
200 -63 195 67 -199 0
200 -63 -195 -67 -199 0
202 63 -195 0
202 -63 195 0
-202 63 195 0
-202 -63 -195 0
201 67 -199 0
201 -67 199 0
-201 67 199 0
-201 -67 -199 0
-203 202 0
-203 199 0
203 -202 -199 0
204 202 -199 0
204 -202 199 0
-204 202 199 0
-204 -202 -199 0
-205 206 0
-205 204 0
-205 -202 0
205 -206 202 -204 0
206 -202 204 0
-206 202 204 0
-207 204 0
206 -207 -202 0
-206 -207 202 0
206 207 202 -204 0
-206 207 -202 -204 0
-208 204 0
206 -208 202 0
-206 -208 -202 0
206 208 -202 -204 0
-206 208 202 -204 0
-209 206 0
-209 204 0
209 -206 -204 0
210 206 -204 0
210 -206 204 0
-210 206 204 0
-210 -206 -204 0
-211 206 0
-211 210 0
211 -206 -210 0
212 206 -210 0
212 -206 210 0
-212 206 210 0
-212 -206 -210 0
-213 214 0
-213 212 0
-213 -206 0
213 -214 206 -212 0
214 -206 212 0
-214 206 212 0
-215 212 0
214 -215 -206 0
-214 -215 206 0
214 215 206 -212 0
-214 215 -206 -212 0
-216 212 0
214 -216 206 0
-214 -216 -206 0
214 216 -206 -212 0
-214 216 206 -212 0
-217 214 0
-217 212 0
217 -214 -212 0
218 214 -212 0
218 -214 212 0
-218 214 212 0
-218 -214 -212 0
-219 125 0
-219 218 0
-219 214 -129 0
-219 -214 129 0
219 -125 214 129 -218 0
219 -125 -214 -129 -218 0
221 125 -214 0
221 -125 214 0
-221 125 214 0
-221 -125 -214 0
220 129 -218 0
220 -129 218 0
-220 129 218 0
-220 -129 -218 0
-222 221 0
-222 218 0
222 -221 -218 0
223 221 -218 0
223 -221 218 0
-223 221 218 0
-223 -221 -218 0
-224 225 0
-224 223 0
-224 -221 0
224 -225 221 -223 0
225 -221 223 0
-225 221 223 0
-226 223 0
225 -226 -221 0
-225 -226 221 0
225 226 221 -223 0
-225 226 -221 -223 0
-227 223 0
225 -227 221 0
-225 -227 -221 0
225 227 -221 -223 0
-225 227 221 -223 0
-228 225 0
-228 223 0
228 -225 -223 0
229 225 -223 0
229 -225 223 0
-229 225 223 0
-229 -225 -223 0
-230 17 0
-230 18 0
230 -17 -18 0
231 17 -18 0
231 -17 18 0
-231 17 18 0
-231 -17 -18 0
-232 233 0
-232 231 0
-232 -17 0
232 -233 17 -231 0
233 -17 231 0
-233 17 231 0
-234 231 0
233 -234 -17 0
-233 -234 17 0
233 234 17 -231 0
-233 234 -17 -231 0
-235 231 0
233 -235 17 0
-233 -235 -17 0
233 235 -17 -231 0
-233 235 17 -231 0
-236 233 0
-236 231 0
236 -233 -231 0
237 233 -231 0
237 -233 231 0
-237 233 231 0
-237 -233 -231 0
-238 19 0
-238 20 0
238 -19 -20 0
239 19 -20 0
239 -19 20 0
-239 19 20 0
-239 -19 -20 0
-240 241 0
-240 239 0
-240 -19 0
240 -241 19 -239 0
241 -19 239 0
-241 19 239 0
-242 239 0
241 -242 -19 0
-241 -242 19 0
241 242 19 -239 0
-241 242 -19 -239 0
-243 239 0
241 -243 19 0
-241 -243 -19 0
241 243 -19 -239 0
-241 243 19 -239 0
-244 241 0
-244 239 0
244 -241 -239 0
245 241 -239 0
245 -241 239 0
-245 241 239 0
-245 -241 -239 0
-246 241 0
-246 245 0
246 -241 -245 0
247 241 -245 0
247 -241 245 0
-247 241 245 0
-247 -241 -245 0
-248 249 0
-248 247 0
-248 -241 0
248 -249 241 -247 0
249 -241 247 0
-249 241 247 0
-250 247 0
249 -250 -241 0
-249 -250 241 0
249 250 241 -247 0
-249 250 -241 -247 0
-251 247 0
249 -251 241 0
-249 -251 -241 0
249 251 -241 -247 0
-249 251 241 -247 0
-252 249 0
-252 247 0
252 -249 -247 0
253 249 -247 0
253 -249 247 0
-253 249 247 0
-253 -249 -247 0
-254 233 0
-254 253 0
-254 249 -237 0
-254 -249 237 0
254 -233 249 237 -253 0
254 -233 -249 -237 -253 0
256 233 -249 0
256 -233 249 0
-256 233 249 0
-256 -233 -249 0
255 237 -253 0
255 -237 253 0
-255 237 253 0
-255 -237 -253 0
-257 256 0
-257 253 0
257 -256 -253 0
258 256 -253 0
258 -256 253 0
-258 256 253 0
-258 -256 -253 0
-259 260 0
-259 258 0
-259 -256 0
259 -260 256 -258 0
260 -256 258 0
-260 256 258 0
-261 258 0
260 -261 -256 0
-260 -261 256 0
260 261 256 -258 0
-260 261 -256 -258 0
-262 258 0
260 -262 256 0
-260 -262 -256 0
260 262 -256 -258 0
-260 262 256 -258 0
-263 260 0
-263 258 0
263 -260 -258 0
264 260 -258 0
264 -260 258 0
-264 260 258 0
-264 -260 -258 0
-265 21 0
-265 22 0
265 -21 -22 0
266 21 -22 0
266 -21 22 0
-266 21 22 0
-266 -21 -22 0
-267 268 0
-267 266 0
-267 -21 0
267 -268 21 -266 0
268 -21 266 0
-268 21 266 0
-269 266 0
268 -269 -21 0
-268 -269 21 0
268 269 21 -266 0
-268 269 -21 -266 0
-270 266 0
268 -270 21 0
-268 -270 -21 0
268 270 -21 -266 0
-268 270 21 -266 0
-271 268 0
-271 266 0
271 -268 -266 0
272 268 -266 0
272 -268 266 0
-272 268 266 0
-272 -268 -266 0
-273 268 0
-273 272 0
273 -268 -272 0
274 268 -272 0
274 -268 272 0
-274 268 272 0
-274 -268 -272 0
-275 276 0
-275 274 0
-275 -268 0
275 -276 268 -274 0
276 -268 274 0
-276 268 274 0
-277 274 0
276 -277 -268 0
-276 -277 268 0
276 277 268 -274 0
-276 277 -268 -274 0
-278 274 0
276 -278 268 0
-276 -278 -268 0
276 278 -268 -274 0
-276 278 268 -274 0
-279 276 0
-279 274 0
279 -276 -274 0
280 276 -274 0
280 -276 274 0
-280 276 274 0
-280 -276 -274 0
-281 260 0
-281 280 0
-281 276 -264 0
-281 -276 264 0
281 -260 276 264 -280 0
281 -260 -276 -264 -280 0
283 260 -276 0
283 -260 276 0
-283 260 276 0
-283 -260 -276 0
282 264 -280 0
282 -264 280 0
-282 264 280 0
-282 -264 -280 0
-284 283 0
-284 280 0
284 -283 -280 0
285 283 -280 0
285 -283 280 0
-285 283 280 0
-285 -283 -280 0
-286 287 0
-286 285 0
-286 -283 0
286 -287 283 -285 0
287 -283 285 0
-287 283 285 0
-288 285 0
287 -288 -283 0
-287 -288 283 0
287 288 283 -285 0
-287 288 -283 -285 0
-289 285 0
287 -289 283 0
-287 -289 -283 0
287 289 -283 -285 0
-287 289 283 -285 0
-290 287 0
-290 285 0
290 -287 -285 0
291 287 -285 0
291 -287 285 0
-291 287 285 0
-291 -287 -285 0
-292 23 0
-292 24 0
292 -23 -24 0
293 23 -24 0
293 -23 24 0
-293 23 24 0
-293 -23 -24 0
-294 295 0
-294 293 0
-294 -23 0
294 -295 23 -293 0
295 -23 293 0
-295 23 293 0
-296 293 0
295 -296 -23 0
-295 -296 23 0
295 296 23 -293 0
-295 296 -23 -293 0
-297 293 0
295 -297 23 0
-295 -297 -23 0
295 297 -23 -293 0
-295 297 23 -293 0
-298 295 0
-298 293 0
298 -295 -293 0
299 295 -293 0
299 -295 293 0
-299 295 293 0
-299 -295 -293 0
-300 295 0
-300 299 0
300 -295 -299 0
301 295 -299 0
301 -295 299 0
-301 295 299 0
-301 -295 -299 0
-302 303 0
-302 301 0
-302 -295 0
302 -303 295 -301 0
303 -295 301 0
-303 295 301 0
-304 301 0
303 -304 -295 0
-303 -304 295 0
303 304 295 -301 0
-303 304 -295 -301 0
-305 301 0
303 -305 295 0
-303 -305 -295 0
303 305 -295 -301 0
-303 305 295 -301 0
-306 303 0
-306 301 0
306 -303 -301 0
307 303 -301 0
307 -303 301 0
-307 303 301 0
-307 -303 -301 0
-308 133 0
-308 307 0
-308 303 -174 0
-308 -303 174 0
308 -133 303 174 -307 0
308 -133 -303 -174 -307 0
310 133 -303 0
310 -133 303 0
-310 133 303 0
-310 -133 -303 0
309 174 -307 0
309 -174 307 0
-309 174 307 0
-309 -174 -307 0
-311 310 0
-311 307 0
311 -310 -307 0
312 310 -307 0
312 -310 307 0
-312 310 307 0
-312 -310 -307 0
-313 314 0
-313 312 0
-313 -310 0
313 -314 310 -312 0
314 -310 312 0
-314 310 312 0
-315 312 0
314 -315 -310 0
-314 -315 310 0
314 315 310 -312 0
-314 315 -310 -312 0
-316 312 0
314 -316 310 0
-314 -316 -310 0
314 316 -310 -312 0
-314 316 310 -312 0
-317 314 0
-317 312 0
317 -314 -312 0
318 314 -312 0
318 -314 312 0
-318 314 312 0
-318 -314 -312 0
-319 25 0
-319 26 0
319 -25 -26 0
320 25 -26 0
320 -25 26 0
-320 25 26 0
-320 -25 -26 0
-321 322 0
-321 320 0
-321 -25 0
321 -322 25 -320 0
322 -25 320 0
-322 25 320 0
-323 320 0
322 -323 -25 0
-322 -323 25 0
322 323 25 -320 0
-322 323 -25 -320 0
-324 320 0
322 -324 25 0
-322 -324 -25 0
322 324 -25 -320 0
-322 324 25 -320 0
-325 322 0
-325 320 0
325 -322 -320 0
326 322 -320 0
326 -322 320 0
-326 322 320 0
-326 -322 -320 0
-327 322 0
-327 326 0
327 -322 -326 0
328 322 -326 0
328 -322 326 0
-328 322 326 0
-328 -322 -326 0
-329 330 0
-329 328 0
-329 -322 0
329 -330 322 -328 0
330 -322 328 0
-330 322 328 0
-331 328 0
330 -331 -322 0
-330 -331 322 0
330 331 322 -328 0
-330 331 -322 -328 0
-332 328 0
330 -332 322 0
-330 -332 -322 0
330 332 -322 -328 0
-330 332 322 -328 0
-333 330 0
-333 328 0
333 -330 -328 0
334 330 -328 0
334 -330 328 0
-334 330 328 0
-334 -330 -328 0
-335 98 0
-335 334 0
-335 330 -120 0
-335 -330 120 0
335 -98 330 120 -334 0
335 -98 -330 -120 -334 0
337 98 -330 0
337 -98 330 0
-337 98 330 0
-337 -98 -330 0
336 120 -334 0
336 -120 334 0
-336 120 334 0
-336 -120 -334 0
-338 337 0
-338 334 0
338 -337 -334 0
339 337 -334 0
339 -337 334 0
-339 337 334 0
-339 -337 -334 0
-340 341 0
-340 339 0
-340 -337 0
340 -341 337 -339 0
341 -337 339 0
-341 337 339 0
-342 339 0
341 -342 -337 0
-341 -342 337 0
341 342 337 -339 0
-341 342 -337 -339 0
-343 339 0
341 -343 337 0
-341 -343 -337 0
341 343 -337 -339 0
-341 343 337 -339 0
-344 341 0
-344 339 0
344 -341 -339 0
345 341 -339 0
345 -341 339 0
-345 341 339 0
-345 -341 -339 0
-346 341 0
-346 345 0
346 -341 -345 0
347 341 -345 0
347 -341 345 0
-347 341 345 0
-347 -341 -345 0
-348 349 0
-348 347 0
-348 -341 0
348 -349 341 -347 0
349 -341 347 0
-349 341 347 0
-350 347 0
349 -350 -341 0
-349 -350 341 0
349 350 341 -347 0
-349 350 -341 -347 0
-351 347 0
349 -351 341 0
-349 -351 -341 0
349 351 -341 -347 0
-349 351 341 -347 0
-352 349 0
-352 347 0
352 -349 -347 0
353 349 -347 0
353 -349 347 0
-353 349 347 0
-353 -349 -347 0
-354 233 0
-354 353 0
-354 349 -255 0
-354 -349 255 0
354 -233 349 255 -353 0
354 -233 -349 -255 -353 0
356 233 -349 0
356 -233 349 0
-356 233 349 0
-356 -233 -349 0
355 255 -353 0
355 -255 353 0
-355 255 353 0
-355 -255 -353 0
-357 356 0
-357 353 0
357 -356 -353 0
358 356 -353 0
358 -356 353 0
-358 356 353 0
-358 -356 -353 0
-359 360 0
-359 358 0
-359 -356 0
359 -360 356 -358 0
360 -356 358 0
-360 356 358 0
-361 358 0
360 -361 -356 0
-360 -361 356 0
360 361 356 -358 0
-360 361 -356 -358 0
-362 358 0
360 -362 356 0
-360 -362 -356 0
360 362 -356 -358 0
-360 362 356 -358 0
-363 360 0
-363 358 0
363 -360 -358 0
364 360 -358 0
364 -360 358 0
-364 360 358 0
-364 -360 -358 0
-365 27 0
-365 28 0
365 -27 -28 0
366 27 -28 0
366 -27 28 0
-366 27 28 0
-366 -27 -28 0
-367 368 0
-367 366 0
-367 -27 0
367 -368 27 -366 0
368 -27 366 0
-368 27 366 0
-369 366 0
368 -369 -27 0
-368 -369 27 0
368 369 27 -366 0
-368 369 -27 -366 0
-370 366 0
368 -370 27 0
-368 -370 -27 0
368 370 -27 -366 0
-368 370 27 -366 0
-371 368 0
-371 366 0
371 -368 -366 0
372 368 -366 0
372 -368 366 0
-372 368 366 0
-372 -368 -366 0
-373 368 0
-373 372 0
373 -368 -372 0
374 368 -372 0
374 -368 372 0
-374 368 372 0
-374 -368 -372 0
-375 376 0
-375 374 0
-375 -368 0
375 -376 368 -374 0
376 -368 374 0
-376 368 374 0
-377 374 0
376 -377 -368 0
-376 -377 368 0
376 377 368 -374 0
-376 377 -368 -374 0
-378 374 0
376 -378 368 0
-376 -378 -368 0
376 378 -368 -374 0
-376 378 368 -374 0
-379 376 0
-379 374 0
379 -376 -374 0
380 376 -374 0
380 -376 374 0
-380 376 374 0
-380 -376 -374 0
-381 314 0
-381 380 0
-381 376 -318 0
-381 -376 318 0
381 -314 376 318 -380 0
381 -314 -376 -318 -380 0
383 314 -376 0
383 -314 376 0
-383 314 376 0
-383 -314 -376 0
382 318 -380 0
382 -318 380 0
-382 318 380 0
-382 -318 -380 0
-384 383 0
-384 380 0
384 -383 -380 0
385 383 -380 0
385 -383 380 0
-385 383 380 0
-385 -383 -380 0
-386 387 0
-386 385 0
-386 -383 0
386 -387 383 -385 0
387 -383 385 0
-387 383 385 0
-388 385 0
387 -388 -383 0
-387 -388 383 0
387 388 383 -385 0
-387 388 -383 -385 0
-389 385 0
387 -389 383 0
-387 -389 -383 0
387 389 -383 -385 0
-387 389 383 -385 0
-390 387 0
-390 385 0
390 -387 -385 0
391 387 -385 0
391 -387 385 0
-391 387 385 0
-391 -387 -385 0
-392 29 0
-392 30 0
392 -29 -30 0
393 29 -30 0
393 -29 30 0
-393 29 30 0
-393 -29 -30 0
-394 395 0
-394 393 0
-394 -29 0
394 -395 29 -393 0
395 -29 393 0
-395 29 393 0
-396 393 0
395 -396 -29 0
-395 -396 29 0
395 396 29 -393 0
-395 396 -29 -393 0
-397 393 0
395 -397 29 0
-395 -397 -29 0
395 397 -29 -393 0
-395 397 29 -393 0
-398 395 0
-398 393 0
398 -395 -393 0
399 395 -393 0
399 -395 393 0
-399 395 393 0
-399 -395 -393 0
-400 395 0
-400 399 0
400 -395 -399 0
401 395 -399 0
401 -395 399 0
-401 395 399 0
-401 -395 -399 0
-402 403 0
-402 401 0
-402 -395 0
402 -403 395 -401 0
403 -395 401 0
-403 395 401 0
-404 401 0
403 -404 -395 0
-403 -404 395 0
403 404 395 -401 0
-403 404 -395 -401 0
-405 401 0
403 -405 395 0
-403 -405 -395 0
403 405 -395 -401 0
-403 405 395 -401 0
-406 403 0
-406 401 0
406 -403 -401 0
407 403 -401 0
407 -403 401 0
-407 403 401 0
-407 -403 -401 0
-408 387 0
-408 407 0
-408 403 -391 0
-408 -403 391 0
408 -387 403 391 -407 0
408 -387 -403 -391 -407 0
410 387 -403 0
410 -387 403 0
-410 387 403 0
-410 -387 -403 0
409 391 -407 0
409 -391 407 0
-409 391 407 0
-409 -391 -407 0
-411 410 0
-411 407 0
411 -410 -407 0
412 410 -407 0
412 -410 407 0
-412 410 407 0
-412 -410 -407 0
-413 414 0
-413 412 0
-413 -410 0
413 -414 410 -412 0
414 -410 412 0
-414 410 412 0
-415 412 0
414 -415 -410 0
-414 -415 410 0
414 415 410 -412 0
-414 415 -410 -412 0
-416 412 0
414 -416 410 0
-414 -416 -410 0
414 416 -410 -412 0
-414 416 410 -412 0
-417 414 0
-417 412 0
417 -414 -412 0
418 414 -412 0
418 -414 412 0
-418 414 412 0
-418 -414 -412 0
-419 31 0
-419 32 0
419 -31 -32 0
420 31 -32 0
420 -31 32 0
-420 31 32 0
-420 -31 -32 0
-421 422 0
-421 420 0
-421 -31 0
421 -422 31 -420 0
422 -31 420 0
-422 31 420 0
-423 420 0
422 -423 -31 0
-422 -423 31 0
422 423 31 -420 0
-422 423 -31 -420 0
-424 420 0
422 -424 31 0
-422 -424 -31 0
422 424 -31 -420 0
-422 424 31 -420 0
-425 422 0
-425 420 0
425 -422 -420 0
426 422 -420 0
426 -422 420 0
-426 422 420 0
-426 -422 -420 0
-427 422 0
-427 426 0
427 -422 -426 0
428 422 -426 0
428 -422 426 0
-428 422 426 0
-428 -422 -426 0
-429 430 0
-429 428 0
-429 -422 0
429 -430 422 -428 0
430 -422 428 0
-430 422 428 0
-431 428 0
430 -431 -422 0
-430 -431 422 0
430 431 422 -428 0
-430 431 -422 -428 0
-432 428 0
430 -432 422 0
-430 -432 -422 0
430 432 -422 -428 0
-430 432 422 -428 0
-433 430 0
-433 428 0
433 -430 -428 0
434 430 -428 0
434 -430 428 0
-434 430 428 0
-434 -430 -428 0
-435 287 0
-435 434 0
-435 430 -291 0
-435 -430 291 0
435 -287 430 291 -434 0
435 -287 -430 -291 -434 0
437 287 -430 0
437 -287 430 0
-437 287 430 0
-437 -287 -430 0
436 291 -434 0
436 -291 434 0
-436 291 434 0
-436 -291 -434 0
-438 437 0
-438 434 0
438 -437 -434 0
439 437 -434 0
439 -437 434 0
-439 437 434 0
-439 -437 -434 0
-440 441 0
-440 439 0
-440 -437 0
440 -441 437 -439 0
441 -437 439 0
-441 437 439 0
-442 439 0
441 -442 -437 0
-441 -442 437 0
441 442 437 -439 0
-441 442 -437 -439 0
-443 439 0
441 -443 437 0
-441 -443 -437 0
441 443 -437 -439 0
-441 443 437 -439 0
-444 441 0
-444 439 0
444 -441 -439 0
445 441 -439 0
445 -441 439 0
-445 441 439 0
-445 -441 -439 0
-446 441 0
-446 445 0
446 -441 -445 0
447 441 -445 0
447 -441 445 0
-447 441 445 0
-447 -441 -445 0
-448 449 0
-448 447 0
-448 -441 0
448 -449 441 -447 0
449 -441 447 0
-449 441 447 0
-450 447 0
449 -450 -441 0
-449 -450 441 0
449 450 441 -447 0
-449 450 -441 -447 0
-451 447 0
449 -451 441 0
-449 -451 -441 0
449 451 -441 -447 0
-449 451 441 -447 0
-452 449 0
-452 447 0
452 -449 -447 0
453 449 -447 0
453 -449 447 0
-453 449 447 0
-453 -449 -447 0
-454 414 0
-454 453 0
-454 449 -418 0
-454 -449 418 0
454 -414 449 418 -453 0
454 -414 -449 -418 -453 0
456 414 -449 0
456 -414 449 0
-456 414 449 0
-456 -414 -449 0
455 418 -453 0
455 -418 453 0
-455 418 453 0
-455 -418 -453 0
-457 456 0
-457 453 0
457 -456 -453 0
458 456 -453 0
458 -456 453 0
-458 456 453 0
-458 -456 -453 0
-459 460 0
-459 458 0
-459 -456 0
459 -460 456 -458 0
460 -456 458 0
-460 456 458 0
-461 458 0
460 -461 -456 0
-460 -461 456 0
460 461 456 -458 0
-460 461 -456 -458 0
-462 458 0
460 -462 456 0
-460 -462 -456 0
460 462 -456 -458 0
-460 462 456 -458 0
-463 460 0
-463 458 0
463 -460 -458 0
464 460 -458 0
464 -460 458 0
-464 460 458 0
-464 -460 -458 0
-36 0
-63 0
-201 0
-90 0
-155 0
-98 0
-336 0
-125 0
-220 0
-133 0
-309 0
-179 0
-183 0
-225 0
-229 0
-233 0
-355 0
-260 0
-282 0
-287 0
-436 0
-314 0
-382 0
-360 0
-364 0
-387 0
-409 0
-414 0
-455 0
-460 0
-464 0
